NAME: rand_1/map6_180
TYPE: TSP
COMMENT: autogenerated using a wonderful map creator
DIMENSION: 210
EDGE_WEIGHT_TYPE: EUC_2D
NODE_COORD_SECTION
1 43.0 62.0
2 46.0 63.0
3 58.0 20.0
4 5.0 8.0
5 4.0 5.0
6 1.0 3.0
7 63.0 17.0
8 7.0 3.0
9 11.0 62.0
10 44.0 63.0
11 62.0 21.0
12 62.0 17.0
13 13.0 61.0
14 1.0 5.0
15 41.0 62.0
16 47.0 58.0
17 7.0 7.0
18 6.0 5.0
19 41.0 60.0
20 13.0 57.0
21 6.0 1.0
22 46.0 57.0
23 45.0 58.0
24 10.0 60.0
25 60.0 19.0
26 14.0 58.0
27 42.0 60.0
28 47.0 57.0
29 42.0 62.0
30 57.0 23.0
31 13.0 59.0
32 42.0 59.0
33 7.0 2.0
34 2.0 5.0
35 46.0 58.0
36 14.0 61.0
37 41.0 63.0
38 13.0 62.0
39 2.0 4.0
40 45.0 59.0
41 47.0 63.0
42 46.0 60.0
43 1.0 2.0
44 3.0 5.0
45 7.0 1.0
46 9.0 59.0
47 3.0 7.0
48 2.0 2.0
49 42.0 58.0
50 7.0 4.0
51 7.0 6.0
52 1.0 4.0
53 45.0 63.0
54 2.0 3.0
55 44.0 58.0
56 42.0 57.0
57 58.0 23.0
58 12.0 60.0
59 45.0 62.0
60 5.0 7.0
61 49.0 23.0
62 42.0 39.0
63 18.0 26.0
64 44.0 45.0
65 45.0 10.0
66 19.0 55.0
67 22.0 17.0
68 34.0 28.0
69 30.0 9.0
70 19.0 18.0
71 41.0 15.0
72 9.0 26.0
73 29.0 59.0
74 6.0 57.0
75 59.0 39.0
76 3.0 49.0
77 52.0 33.0
78 9.0 35.0
79 59.0 48.0
80 23.0 61.0
81 19.0 39.0
82 59.0 57.0
83 61.0 54.0
84 41.0 51.0
85 53.0 25.0
86 27.0 6.0
87 2.0 41.0
88 11.0 53.0
89 39.0 35.0
90 22.0 28.0
91 54.0 42.0
92 12.0 36.0
93 6.0 50.0
94 63.0 63.0
95 20.0 58.0
96 4.0 41.0
97 18.0 58.0
98 61.0 38.0
99 55.0 52.0
100 58.0 51.0
101 18.0 12.0
102 2.0 25.0
103 10.0 47.0
104 30.0 4.0
105 60.0 5.0
106 49.0 39.0
107 62.0 39.0
108 23.0 38.0
109 55.0 36.0
110 42.0 18.0
111 27.0 29.0
112 60.0 41.0
113 37.0 58.0
114 19.0 52.0
115 54.0 19.0
116 46.0 45.0
117 34.0 25.0
118 6.0 45.0
119 41.0 12.0
120 51.0 22.0
121 53.0 41.0
122 6.0 63.0
123 15.0 11.0
124 61.0 33.0
125 61.0 42.0
126 53.0 4.0
127 56.0 55.0
128 37.0 51.0
129 39.0 23.0
130 2.0 38.0
131 57.0 38.0
132 17.0 2.0
133 49.0 34.0
134 46.0 47.0
135 60.0 9.0
136 20.0 37.0
137 55.0 31.0
138 59.0 29.0
139 23.0 42.0
140 58.0 39.0
141 34.0 39.0
142 11.0 25.0
143 19.0 47.0
144 46.0 31.0
145 36.0 63.0
146 8.0 47.0
147 31.0 21.0
148 20.0 30.0
149 48.0 46.0
150 13.0 46.0
151 49.0 45.0
152 57.0 58.0
153 4.0 22.0
154 4.0 31.0
155 1.0 62.0
156 36.0 29.0
157 13.0 9.0
158 52.0 25.0
159 18.0 2.0
160 47.0 47.0
161 22.0 57.0
162 54.0 7.0
163 57.0 33.0
164 60.0 50.0
165 12.0 28.0
166 41.0 9.0
167 15.0 54.0
168 53.0 47.0
169 46.0 8.0
170 1.0 18.0
171 9.0 23.0
172 31.0 53.0
173 25.0 28.0
174 63.0 12.0
175 10.0 39.0
176 51.0 49.0
177 15.0 29.0
178 6.0 26.0
179 43.0 45.0
180 51.0 58.0
181 23.0 21.0
182 41.0 11.0
183 21.0 42.0
184 1.0 57.0
185 45.0 36.0
186 1.0 11.0
187 37.0 50.0
188 3.0 57.0
189 6.0 19.0
190 36.0 17.0
191 41.0 13.0
192 30.0 10.0
193 47.0 26.0
194 26.0 58.0
195 1.0 59.0
196 28.0 22.0
197 19.0 28.0
198 12.0 53.0
199 3.0 50.0
200 2.0 30.0
201 41.0 34.0
202 46.0 30.0
203 44.0 39.0
204 43.0 49.0
205 25.0 44.0
206 45.0 22.0
207 44.0 2.0
208 17.0 15.0
209 53.0 44.0
210 42.0 23.0
211 39.0 54.0
212 60.0 31.0
213 31.0 4.0
214 20.0 4.0
215 15.0 17.0
216 58.0 52.0
217 43.0 33.0
218 31.0 13.0
219 55.0 62.0
220 43.0 51.0
221 61.0 11.0
222 9.0 13.0
223 2.0 62.0
224 54.0 45.0
225 34.0 42.0
226 34.0 51.0
227 13.0 13.0
228 26.0 10.0
229 5.0 42.0
230 52.0 29.0
231 18.0 15.0
232 21.0 14.0
233 50.0 4.0
234 45.0 17.0
235 54.0 29.0
236 51.0 5.0
237 25.0 2.0
238 6.0 55.0
239 14.0 38.0
240 43.0 28.0
START_DEPOT_SECTION
1
2
3
4
5
6
7
8
9
10
11
12
13
14
15
16
17
18
19
20
21
22
23
24
25
26
27
28
29
30
-1
END_DEPOT_SECTION
31
32
33
34
35
36
37
38
39
40
41
42
43
44
45
46
47
48
49
50
51
52
53
54
55
56
57
58
59
60
-1
EOF
